30
1 0 6
4 1 8
4 3 8
5 0 8
5 1 7
5 2 8
5 3 7
6 3 9
6 4 8
6 5 7
7 2 8
7 4 8
7 5 6
7 6 4
8 1 11
8 2 7
8 5 10
8 6 11
9 0 5
9 1 4
9 3 1
9 4 5
9 8 2
10 0 10
10 2 6
10 3 7
10 4 6
10 6 1
10 7 4
11 2 3
11 4 8
11 7 3
11 8 4
12 0 2
12 1 11
12 3 3
12 4 2
12 9 1
13 0 10
13 2 10
13 3 4
13 5 3
13 6 2
13 8 5
13 9 8
13 12 11
14 2 7
14 6 10
14 8 1
14 9 7
14 10 10
14 12 4
15 1 9
15 2 10
15 3 10
15 4 10
15 7 9
15 11 7
15 13 2
15 14 2
16 0 1
16 2 4
16 3 3
16 9 2
16 11 8
16 13 4
17 0 2
17 2 8
17 5 4
17 6 7
17 7 5
17 10 11
17 11 11
18 2 7
18 4 3
18 6 4
18 8 1
18 9 2
18 10 2
18 14 3
19 1 8
19 5 2
19 6 5
19 11 3
19 15 4
19 17 6
20 0 10
20 2 11
20 3 4
20 5 2
20 6 1
20 7 4
20 9 7
20 12 8
20 14 2
20 17 4
20 18 10
20 19 7
21 0 5
21 1 10
21 2 2
21 5 10
21 6 10
21 7 4
21 8 6
21 9 8
21 14 8
21 16 9
21 17 5
21 18 8
21 20 10
22 0 5
22 2 2
22 4 11
22 6 5
22 8 5
22 9 2
22 11 3
22 12 2
22 15 10
22 16 8
22 17 4
22 18 6
22 19 2
22 20 9
23 0 8
23 1 8
23 3 6
23 4 8
23 9 4
23 14 3
23 18 5
23 20 6
23 22 4
24 1 4
24 3 2
24 4 8
24 6 2
24 7 2
24 9 1
24 10 5
24 17 1
24 20 5
25 0 5
25 1 2
25 3 8
25 5 2
25 11 11
25 12 9
25 13 8
25 17 4
25 18 4
25 20 1
25 21 9
25 22 6
26 4 2
26 6 5
26 8 2
26 11 6
26 12 6
26 13 8
26 14 11
26 15 9
26 16 5
26 19 8
26 21 3
26 22 11
26 25 6
27 0 9
27 1 6
27 2 1
27 5 4
27 8 2
27 10 10
27 11 5
27 14 1
27 19 3
27 20 2
27 21 9
27 26 10
28 3 1
28 5 7
28 6 3
28 7 1
28 8 9
28 9 1
28 11 11
28 14 7
28 15 9
28 20 9
28 22 2
28 23 7
28 27 1
29 1 10
29 2 3
29 3 3
29 5 11
29 10 5
29 12 8
29 13 10
29 14 5
29 15 3
29 16 11
29 17 3
29 19 4
29 20 2
29 21 11
29 23 7
29 28 2
